<?xml version = "1.0" standalone="yes"?>
<!-- This file has been generated by DOcplex version 2.23.222  -->
<CPLEXSolution version="1.0">
 <header
   problemName="CVRP"
   objectiveValue="8824.23"
  />
 <variables>
  <variable name="x_0_1" index="0" value="1.00000"/>
  <variable name="x_0_2" index="1" value="1.00000"/>
  <variable name="x_0_3" index="2" value="1.00000"/>
  <variable name="x_0_5" index="4" value="1.00000"/>
  <variable name="x_0_7" index="6" value="1.00000"/>
  <variable name="x_0_9" index="8" value="1.00000"/>
  <variable name="x_0_14" index="13" value="1.00000"/>
  <variable name="x_1_0" index="14" value="1.00000"/>
  <variable name="x_2_13" index="40" value="1.00000"/>
  <variable name="x_3_8" index="49" value="1.00000"/>
  <variable name="x_4_0" index="56" value="1.00000"/>
  <variable name="x_5_10" index="79" value="1.00000"/>
  <variable name="x_6_0" index="84" value="1.00000"/>
  <variable name="x_7_0" index="98" value="1.00000"/>
  <variable name="x_8_0" index="112" value="1.00000"/>
  <variable name="x_9_11" index="136" value="1.00000"/>
  <variable name="x_10_0" index="140" value="1.00000"/>
  <variable name="x_11_6" index="160" value="1.00000"/>
  <variable name="x_12_4" index="172" value="1.00000"/>
  <variable name="x_13_12" index="194" value="1.00000"/>
  <variable name="x_14_0" index="196" value="1.00000"/>
  <variable name="u_1" index="210" value="17.00000"/>
  <variable name="u_2" index="211" value="2.00000"/>
  <variable name="u_3" index="212" value="3.00000"/>
  <variable name="u_4" index="213" value="22.00000"/>
  <variable name="u_5" index="214" value="8.00000"/>
  <variable name="u_6" index="215" value="22.00000"/>
  <variable name="u_7" index="216" value="22.00000"/>
  <variable name="u_8" index="217" value="21.00000"/>
  <variable name="u_9" index="218" value="11.00000"/>
  <variable name="u_10" index="219" value="19.00000"/>
  <variable name="u_11" index="220" value="17.00000"/>
  <variable name="u_12" index="221" value="9.00000"/>
  <variable name="u_13" index="222" value="4.00000"/>
  <variable name="u_14" index="223" value="21.00000"/>
 </variables>
</CPLEXSolution>
